letting x_max be 5
letting y_max be 5

letting blanks be 
[
    [0,0,0,0,0],
    [0,0,1,1,0],
    [0,1,1,1,1],
    [0,1,1,1,1],
    [0,0,1,1,0]

]

letting vertsums be 
[
    [00,00,26,12,00],
    [00, 4,00,00,16],
    [00,00,00,00,00],
    [00,00,00,00,00],
    [00,00,00,00,00]

]

letting horzsums be 
[
    [00,00,00,00,00],
    [00, 4,00,00,00],
    [17,00,00,00,00],
    [26,00,00,00,00],
    [00,11,00,00,00]

]
